(set-logic BV) (define-fun origCir ((n221 Bool) (n325 Bool) (n254 Bool) (n207 Bool) (i59 Bool)) Bool (xor (and (xor n325 (not (and n254 n207))) n221) i59)) (synth-fun skel ((n221 Bool) (n325 Bool) (n254 Bool) (n207 Bool) (i59 Bool)) Bool) (declare-var n221 Bool) (declare-var n325 Bool) (declare-var n254 Bool) (declare-var n207 Bool) (declare-var i59 Bool) (constraint (= (origCir n221 n325 n254 n207 i59) (skel n221 n325 n254 n207 i59))) (check-synth)
